51
3 74 114 75 
2 61 101 
3 99 92 65 
3 112 16 45 
3 116 84 2 
3 78 14 72 
2 108 67 
3 40 31 104 
2 20 64 
3 82 9 94 
3 100 43 106 
3 36 11 120 
4 26 14 81 31 
3 60 50 1 
3 51 27 118 
3 43 80 47 
2 38 15 
3 42 37 113 
2 115 111 
2 99 22 
4 70 57 58 76 
2 18 25 
3 71 21 28 
3 82 7 6 
2 19 29 
2 13 3 
2 96 95 
2 105 97 
2 109 39 
3 69 58 76 
3 54 73 48 
3 12 10 32 
2 102 49 
3 110 11 120 
2 53 83 
3 98 114 30 
2 48 73 
2 102 64 
2 15 54 
2 55 29 
1 52 
2 77 106 
1 100 
2 89 33 
2 86 8 
1 51 
1 18 
2 49 5 
1 47 
2 66 105 
1 88 
